40
469
20
58
93
90
75
86
48
40
85
28
74
33
83
97
94
44
89
1
35
90
26
0 1
0 3
0 4
0 7
0 8
0 11
0 13
0 14
0 15
0 16
0 21
0 22
0 23
0 24
0 25
0 26
0 27
0 28
0 29
0 33
0 34
0 35
0 37
1 3
1 4
1 5
1 6
1 7
1 9
1 10
1 11
1 13
1 14
1 15
1 16
1 17
1 19
1 21
1 22
1 23
1 24
1 26
1 28
1 29
1 30
1 33
1 34
1 35
1 37
1 39
2 3
2 4
2 5
2 6
2 8
2 9
2 10
2 11
2 12
2 14
2 16
2 17
2 18
2 21
2 22
2 24
2 25
2 29
2 30
2 31
2 33
2 34
2 35
2 36
2 37
2 39
3 4
3 6
3 13
3 14
3 15
3 16
3 18
3 19
3 20
3 22
3 23
3 27
3 30
3 31
3 32
3 33
3 34
3 35
3 36
3 37
4 5
4 6
4 7
4 13
4 14
4 18
4 19
4 20
4 21
4 22
4 23
4 24
4 29
4 30
4 34
4 36
4 38
4 39
5 6
5 9
5 10
5 12
5 15
5 17
5 20
5 22
5 23
5 26
5 27
5 28
5 29
5 30
5 31
5 32
5 35
5 36
5 37
6 7
6 8
6 9
6 14
6 15
6 19
6 20
6 23
6 24
6 26
6 28
6 29
6 30
6 31
6 35
6 36
6 37
6 38
6 39
7 8
7 9
7 10
7 12
7 13
7 17
7 18
7 19
7 22
7 23
7 25
7 26
7 27
7 29
7 32
7 33
7 36
8 10
8 11
8 15
8 21
8 23
8 24
8 25
8 26
8 28
8 29
8 31
8 32
8 35
8 36
8 38
9 11
9 12
9 13
9 14
9 17
9 20
9 21
9 22
9 23
9 24
9 25
9 26
9 27
9 28
9 29
9 30
9 33
9 34
9 36
9 38
9 39
10 11
10 15
10 17
10 18
10 19
10 21
10 24
10 27
10 28
10 29
10 30
10 31
10 32
10 33
10 36
10 37
10 39
11 15
11 16
11 20
11 21
11 22
11 25
11 28
11 31
11 34
11 35
11 36
11 37
11 38
12 13
12 14
12 15
12 16
12 17
12 18
12 20
12 22
12 24
12 26
12 27
12 28
12 29
12 30
12 31
12 34
12 35
12 36
12 39
13 14
13 16
13 17
13 19
13 21
13 22
13 24
13 25
13 27
13 28
13 29
13 31
13 36
13 37
13 38
13 39
14 15
14 16
14 17
14 19
14 20
14 21
14 22
14 23
14 26
14 27
14 30
14 31
14 34
14 35
14 36
14 37
15 17
15 18
15 19
15 20
15 21
15 25
15 27
15 28
15 32
15 34
15 36
15 37
16 17
16 18
16 22
16 23
16 27
16 29
16 30
16 32
16 33
16 34
16 37
16 38
17 18
17 20
17 23
17 24
17 25
17 27
17 28
17 29
17 31
17 32
17 35
17 36
17 37
17 38
17 39
18 19
18 21
18 22
18 24
18 27
18 30
18 31
18 32
18 33
18 34
18 38
18 39
19 20
19 21
19 24
19 28
19 29
19 30
19 32
19 36
19 38
20 21
20 22
20 23
20 24
20 26
20 27
20 28
20 29
20 30
20 31
20 33
20 34
20 35
20 36
20 39
21 23
21 24
21 26
21 31
21 33
21 34
21 36
21 37
21 38
22 23
22 24
22 26
22 29
22 31
22 32
22 34
22 36
22 37
22 38
22 39
23 24
23 25
23 26
23 27
23 28
23 30
23 31
23 35
23 36
23 39
24 27
24 28
24 29
24 30
24 31
24 32
24 33
24 35
24 36
24 37
24 38
24 39
25 26
25 28
25 29
25 30
25 33
25 34
25 35
25 36
25 37
25 39
26 28
26 30
26 32
26 34
26 35
26 36
26 37
26 38
27 30
27 31
27 34
27 36
27 37
28 29
28 31
28 33
28 34
28 36
28 37
28 39
29 32
29 33
29 36
29 37
29 38
30 31
30 32
30 33
30 34
30 36
30 37
30 39
31 33
31 34
31 35
31 36
31 37
31 38
31 39
32 33
32 35
32 36
32 37
32 38
33 36
33 38
33 39
34 35
34 37
34 39
35 36
35 38
36 38
36 39
37 38
38 39
2 22
10 13
30 34
32 6
29 15
26 37
28 24
5 21
23 8
19 31
12 35
25 4
27 18
1 11
14 17
7 36
20 38
0 39
33 9
16 3
